4 5 7 
3 1 1 1 4 159 2 4 2 1 132 6 138 2 2 3 129 6 121 2 4 5 1 156 2 153 4 153 6 159 7 163 5 7 1 175 2 163 3 158 4 165 5 169 6 149 7 148 
3 2 1 2 1 233 3 230 3 1 3 142 2 3 2 1 82 5 80 2 6 2 63 3 68 4 60 5 60 6 71 7 61 1 5 5 1 184 2 186 3 174 6 186 7 164 
3 2 1 1 4 94 2 2 1 56 7 64 1 3 6 1 174 2 188 3 190 4 175 5 190 7 185 2 4 2 3 195 4 203 5 5 1 96 3 105 4 104 6 97 7 95 
3 2 1 7 1 79 2 79 3 88 4 79 5 84 6 90 7 90 2 1 2 71 1 5 2 2 177 3 185 2 4 6 1 141 2 159 3 134 4 148 6 144 7 153 3 2 4 144 5 135 
